
(set-logic ALL) 

(declare-datatype MyList ((Nil) (Cons (head Real) (tail MyList)) )) 
(declare-fun l0 () MyList) 
(declare-fun l1 () MyList) 
(declare-fun l2 () MyList) 
(declare-fun l3 () MyList) 
(declare-fun i0 () Real) 
(declare-fun i1 () Real) 
(assert (= l3 Nil) )
(assert (or (= l0 Nil) (is-Nil Nil) (is-Nil Nil) (is-Nil Nil)) )
(assert (is-Cons Nil) )
(assert (and (is-Nil Nil) (is-Cons Nil) (= l0 l2)) )
(assert (not (= l3 Nil)) )
(assert (is-Nil l1) )
(assert (or (= l1 l2) (is-Nil l3) (= l1 Nil) (is-Nil l3)) )
(assert (and (= l1 l0) (= l1 Nil)) )
(check-sat)
